NAME: rgb8
TYPE: ATSP
COMMENT: 8 random
DIMENSION: 8
EDGE_WEIGHT_TYPE: EXPLICIT
EDGE_WEIGHT_FORMAT: FULL_MATRIX
EDGE_WEIGHT_SECTION
0	9577	7514	4571	6823	8422	7625	7562	
8421	0	7866	3491	4942	8543	13222	13159	
7505	8024	0	4422	2543	4659	7788	7470	
4795	3167	4423	0	3732	7232	6140	5822	
6888	4904	2558	3805	0	4041	7171	6852	
8296	8605	4773	7031	4100	0	5186	4868	
7645	8914	7942	6380	7269	5482	0	363	
7582	8851	7624	6317	6951	5164	363	0	
EOF